11 37 91 14 18 21 74 31 59 42 8 20 61 98 5 22 49 51 94 96 68 53 25 75 12 87 82 36 54 17 67 34 86 35 73 29 30 92 77 99 97 26 55 76 88 71 64 13 33 27 70 38 2 89 80 19 69 40 58 95 47 16 72 46 84 62 66 9 23 10 85 32 79 56 3 7 24 6 48 28 4 90 15 0 41 39 45 81 83 57 44 63 50 43 1 93 60 78 65 52 

